
Gurobi 8.1.1 (mac64, Python) logging started Fri Oct 30 13:32:09 2020

Academic license - for non-commercial use only
Changed value of parameter TimeLimit to 600.0
   Prev: 1e+100  Min: 0.0  Max: 1e+100  Default: 1e+100
Optimize a model with 2014 rows, 1481 columns and 10098 nonzeros
Variable types: 1414 continuous, 67 integer (67 binary)
Coefficient statistics:
  Matrix range     [1e+00, 1e+00]
  Objective range  [2e-01, 8e+00]
  Bounds range     [1e+00, 1e+00]
  RHS range        [1e+00, 1e+00]
Found heuristic solution: objective -0.0000000
Presolve removed 825 rows and 819 columns
Presolve time: 0.01s
Presolved: 1189 rows, 662 columns, 7853 nonzeros
Variable types: 602 continuous, 60 integer (60 binary)

Root relaxation: objective 1.248728e+02, 926 iterations, 0.03 seconds

    Nodes    |    Current Node    |     Objective Bounds      |     Work
 Expl Unexpl |  Obj  Depth IntInf | Incumbent    BestBd   Gap | It/Node Time

     0     0  124.87279    0    6   -0.00000  124.87279      -     -    0s
H    0     0                      77.9837870  124.87279  60.1%     -    0s
     0     0  124.87279    0    8   77.98379  124.87279  60.1%     -    0s
     0     0  124.87279    0    6   77.98379  124.87279  60.1%     -    0s
     0     0  124.87279    0    6   77.98379  124.87279  60.1%     -    0s
     0     0  124.86790    0   13   77.98379  124.86790  60.1%     -    0s
H    0     0                      83.4261084  124.86790  49.7%     -    0s
     0     0  124.86056    0   13   83.42611  124.86056  49.7%     -    0s
     0     0  124.86056    0   14   83.42611  124.86056  49.7%     -    0s
     0     0  124.86056    0   11   83.42611  124.86056  49.7%     -    0s
     0     0  124.85840    0   11   83.42611  124.85840  49.7%     -    0s
     0     0  124.85840    0   12   83.42611  124.85840  49.7%     -    0s
     0     0  124.85840    0   13   83.42611  124.85840  49.7%     -    0s
     0     0  124.85750    0   14   83.42611  124.85750  49.7%     -    0s
     0     0  124.84833    0   12   83.42611  124.84833  49.7%     -    0s
     0     0  124.84833    0   12   83.42611  124.84833  49.7%     -    0s
     0     0  124.84833    0   11   83.42611  124.84833  49.7%     -    0s
     0     0  124.84833    0   17   83.42611  124.84833  49.7%     -    0s
     0     0  124.84833    0   12   83.42611  124.84833  49.7%     -    0s
     0     0  124.84833    0   11   83.42611  124.84833  49.7%     -    0s
     0     2  124.84833    0    9   83.42611  124.84833  49.7%     -    0s
*   86    28              29      87.2787620  124.83202  43.0%  31.7    0s
*  241    70              29      89.7453888  124.78105  39.0%  31.2    0s
*  243    61              30      91.8653556  124.78105  35.8%  31.1    0s

Cutting planes:
  MIR: 17
  Flow cover: 2

Explored 2646 nodes (49106 simplex iterations) in 1.10 seconds
Thread count was 4 (of 4 available processors)

Solution count 6: 91.8654 89.7454 87.2788 ... -0

Optimal solution found (tolerance 1.00e-04)
Best objective 9.186535559514e+01, best bound 9.186535559514e+01, gap 0.0000%

Gurobi 8.1.1 (mac64, Python) logging started Fri Oct 30 13:33:20 2020

Academic license - for non-commercial use only
Changed value of parameter TimeLimit to 600.0
   Prev: 1e+100  Min: 0.0  Max: 1e+100  Default: 1e+100
Optimize a model with 2014 rows, 1481 columns and 10098 nonzeros
Variable types: 1414 continuous, 67 integer (67 binary)
Coefficient statistics:
  Matrix range     [1e+00, 1e+00]
  Objective range  [2e-01, 8e+00]
  Bounds range     [1e+00, 1e+00]
  RHS range        [1e+00, 1e+00]
Found heuristic solution: objective -0.0000000
Presolve removed 825 rows and 819 columns
Presolve time: 0.01s
Presolved: 1189 rows, 662 columns, 7853 nonzeros
Variable types: 602 continuous, 60 integer (60 binary)

Root relaxation: objective 1.248728e+02, 926 iterations, 0.02 seconds

    Nodes    |    Current Node    |     Objective Bounds      |     Work
 Expl Unexpl |  Obj  Depth IntInf | Incumbent    BestBd   Gap | It/Node Time

     0     0  124.87279    0    6   -0.00000  124.87279      -     -    0s
H    0     0                      77.9837870  124.87279  60.1%     -    0s
     0     0  124.87279    0    8   77.98379  124.87279  60.1%     -    0s
     0     0  124.87279    0    6   77.98379  124.87279  60.1%     -    0s
     0     0  124.87279    0    6   77.98379  124.87279  60.1%     -    0s
     0     0  124.86790    0   13   77.98379  124.86790  60.1%     -    0s
H    0     0                      83.4261084  124.86790  49.7%     -    0s
     0     0  124.86056    0   13   83.42611  124.86056  49.7%     -    0s
     0     0  124.86056    0   14   83.42611  124.86056  49.7%     -    0s
     0     0  124.86056    0   11   83.42611  124.86056  49.7%     -    0s
     0     0  124.85840    0   11   83.42611  124.85840  49.7%     -    0s
     0     0  124.85840    0   12   83.42611  124.85840  49.7%     -    0s
     0     0  124.85840    0   13   83.42611  124.85840  49.7%     -    0s
     0     0  124.85750    0   14   83.42611  124.85750  49.7%     -    0s
     0     0  124.84833    0   12   83.42611  124.84833  49.7%     -    0s
     0     0  124.84833    0   12   83.42611  124.84833  49.7%     -    0s
     0     0  124.84833    0   11   83.42611  124.84833  49.7%     -    0s
     0     0  124.84833    0   17   83.42611  124.84833  49.7%     -    0s
     0     0  124.84833    0   12   83.42611  124.84833  49.7%     -    0s
     0     0  124.84833    0   11   83.42611  124.84833  49.7%     -    0s
     0     2  124.84833    0    9   83.42611  124.84833  49.7%     -    0s
*   86    28              29      87.2787620  124.83202  43.0%  31.7    0s
*  241    70              29      89.7453888  124.78105  39.0%  31.2    0s
*  243    61              30      91.8653556  124.78105  35.8%  31.1    0s

Cutting planes:
  MIR: 17
  Flow cover: 2

Explored 2646 nodes (49106 simplex iterations) in 1.13 seconds
Thread count was 4 (of 4 available processors)

Solution count 6: 91.8654 89.7454 87.2788 ... -0

Optimal solution found (tolerance 1.00e-04)
Best objective 9.186535559514e+01, best bound 9.186535559514e+01, gap 0.0000%

Gurobi 8.1.1 (mac64, Python) logging started Fri Oct 30 13:34:15 2020

Academic license - for non-commercial use only
Changed value of parameter TimeLimit to 600.0
   Prev: 1e+100  Min: 0.0  Max: 1e+100  Default: 1e+100
Optimize a model with 2014 rows, 1481 columns and 10098 nonzeros
Variable types: 1414 continuous, 67 integer (67 binary)
Coefficient statistics:
  Matrix range     [1e+00, 1e+00]
  Objective range  [2e-01, 8e+00]
  Bounds range     [1e+00, 1e+00]
  RHS range        [1e+00, 1e+00]
Found heuristic solution: objective -0.0000000
Presolve removed 825 rows and 819 columns
Presolve time: 0.01s
Presolved: 1189 rows, 662 columns, 7853 nonzeros
Variable types: 602 continuous, 60 integer (60 binary)

Root relaxation: objective 1.248728e+02, 926 iterations, 0.03 seconds

    Nodes    |    Current Node    |     Objective Bounds      |     Work
 Expl Unexpl |  Obj  Depth IntInf | Incumbent    BestBd   Gap | It/Node Time

     0     0  124.87279    0    6   -0.00000  124.87279      -     -    0s
H    0     0                      77.9837870  124.87279  60.1%     -    0s
     0     0  124.87279    0    8   77.98379  124.87279  60.1%     -    0s
     0     0  124.87279    0    6   77.98379  124.87279  60.1%     -    0s
     0     0  124.87279    0    6   77.98379  124.87279  60.1%     -    0s
     0     0  124.86790    0   13   77.98379  124.86790  60.1%     -    0s
H    0     0                      83.4261084  124.86790  49.7%     -    0s
     0     0  124.86056    0   13   83.42611  124.86056  49.7%     -    0s
     0     0  124.86056    0   14   83.42611  124.86056  49.7%     -    0s
     0     0  124.86056    0   11   83.42611  124.86056  49.7%     -    0s
     0     0  124.85840    0   11   83.42611  124.85840  49.7%     -    0s
     0     0  124.85840    0   12   83.42611  124.85840  49.7%     -    0s
     0     0  124.85840    0   13   83.42611  124.85840  49.7%     -    0s
     0     0  124.85750    0   14   83.42611  124.85750  49.7%     -    0s
     0     0  124.84833    0   12   83.42611  124.84833  49.7%     -    0s
     0     0  124.84833    0   12   83.42611  124.84833  49.7%     -    0s
     0     0  124.84833    0   11   83.42611  124.84833  49.7%     -    0s
     0     0  124.84833    0   17   83.42611  124.84833  49.7%     -    0s
     0     0  124.84833    0   12   83.42611  124.84833  49.7%     -    0s
     0     0  124.84833    0   11   83.42611  124.84833  49.7%     -    0s
     0     2  124.84833    0    9   83.42611  124.84833  49.7%     -    0s
*   86    28              29      87.2787620  124.83202  43.0%  31.7    0s
*  241    70              29      89.7453888  124.78105  39.0%  31.2    0s
*  243    61              30      91.8653556  124.78105  35.8%  31.1    0s

Cutting planes:
  MIR: 17
  Flow cover: 2

Explored 2646 nodes (49106 simplex iterations) in 1.07 seconds
Thread count was 4 (of 4 available processors)

Solution count 6: 91.8654 89.7454 87.2788 ... -0

Optimal solution found (tolerance 1.00e-04)
Best objective 9.186535559514e+01, best bound 9.186535559514e+01, gap 0.0000%

Gurobi 8.1.1 (mac64, Python) logging started Fri Oct 30 13:36:09 2020

Academic license - for non-commercial use only
Changed value of parameter TimeLimit to 600.0
   Prev: 1e+100  Min: 0.0  Max: 1e+100  Default: 1e+100
Optimize a model with 2014 rows, 1481 columns and 10098 nonzeros
Variable types: 1414 continuous, 67 integer (67 binary)
Coefficient statistics:
  Matrix range     [1e+00, 1e+00]
  Objective range  [2e-01, 8e+00]
  Bounds range     [1e+00, 1e+00]
  RHS range        [1e+00, 1e+00]
Found heuristic solution: objective -0.0000000
Presolve removed 825 rows and 819 columns
Presolve time: 0.01s
Presolved: 1189 rows, 662 columns, 7853 nonzeros
Variable types: 602 continuous, 60 integer (60 binary)

Root relaxation: objective 1.248728e+02, 926 iterations, 0.02 seconds

    Nodes    |    Current Node    |     Objective Bounds      |     Work
 Expl Unexpl |  Obj  Depth IntInf | Incumbent    BestBd   Gap | It/Node Time

     0     0  124.87279    0    6   -0.00000  124.87279      -     -    0s
H    0     0                      77.9837870  124.87279  60.1%     -    0s
     0     0  124.87279    0    8   77.98379  124.87279  60.1%     -    0s
     0     0  124.87279    0    6   77.98379  124.87279  60.1%     -    0s
     0     0  124.87279    0    6   77.98379  124.87279  60.1%     -    0s
     0     0  124.86790    0   13   77.98379  124.86790  60.1%     -    0s
H    0     0                      83.4261084  124.86790  49.7%     -    0s
     0     0  124.86056    0   13   83.42611  124.86056  49.7%     -    0s
     0     0  124.86056    0   14   83.42611  124.86056  49.7%     -    0s
     0     0  124.86056    0   11   83.42611  124.86056  49.7%     -    0s
     0     0  124.85840    0   11   83.42611  124.85840  49.7%     -    0s
     0     0  124.85840    0   12   83.42611  124.85840  49.7%     -    0s
     0     0  124.85840    0   13   83.42611  124.85840  49.7%     -    0s
     0     0  124.85750    0   14   83.42611  124.85750  49.7%     -    0s
     0     0  124.84833    0   12   83.42611  124.84833  49.7%     -    0s
     0     0  124.84833    0   12   83.42611  124.84833  49.7%     -    0s
     0     0  124.84833    0   11   83.42611  124.84833  49.7%     -    0s
     0     0  124.84833    0   17   83.42611  124.84833  49.7%     -    0s
     0     0  124.84833    0   12   83.42611  124.84833  49.7%     -    0s
     0     0  124.84833    0   11   83.42611  124.84833  49.7%     -    0s
     0     2  124.84833    0    9   83.42611  124.84833  49.7%     -    0s
*   86    28              29      87.2787620  124.83202  43.0%  31.7    0s
*  241    70              29      89.7453888  124.78105  39.0%  31.2    0s
*  243    61              30      91.8653556  124.78105  35.8%  31.1    0s

Cutting planes:
  MIR: 17
  Flow cover: 2

Explored 2646 nodes (49106 simplex iterations) in 1.09 seconds
Thread count was 4 (of 4 available processors)

Solution count 6: 91.8654 89.7454 87.2788 ... -0

Optimal solution found (tolerance 1.00e-04)
Best objective 9.186535559514e+01, best bound 9.186535559514e+01, gap 0.0000%

Gurobi 8.1.1 (mac64, Python) logging started Fri Oct 30 13:37:03 2020

Academic license - for non-commercial use only
Changed value of parameter TimeLimit to 600.0
   Prev: 1e+100  Min: 0.0  Max: 1e+100  Default: 1e+100
Optimize a model with 202 rows, 203 columns and 404 nonzeros
Variable types: 202 continuous, 1 integer (1 binary)
Coefficient statistics:
  Matrix range     [1e+00, 1e+00]
  Objective range  [2e-01, 2e+00]
  Bounds range     [1e+00, 1e+00]
  RHS range        [1e+00, 1e+00]
Presolve removed 202 rows and 203 columns
Presolve time: 0.00s
Presolve: All rows and columns removed

Explored 0 nodes (0 simplex iterations) in 0.00 seconds
Thread count was 1 (of 4 available processors)

Solution count 1: 58.0364 

Optimal solution found (tolerance 1.00e-04)
Best objective 5.803638828632e+01, best bound 5.803638828632e+01, gap 0.0000%

Gurobi 8.1.1 (mac64, Python) logging started Fri Oct 30 13:39:48 2020

Academic license - for non-commercial use only
Changed value of parameter TimeLimit to 600.0
   Prev: 1e+100  Min: 0.0  Max: 1e+100  Default: 1e+100
Optimize a model with 202 rows, 203 columns and 404 nonzeros
Variable types: 202 continuous, 1 integer (1 binary)
Coefficient statistics:
  Matrix range     [1e+00, 1e+00]
  Objective range  [2e-01, 2e+00]
  Bounds range     [1e+00, 1e+00]
  RHS range        [1e+00, 1e+00]
Presolve removed 202 rows and 203 columns
Presolve time: 0.00s
Presolve: All rows and columns removed

Explored 0 nodes (0 simplex iterations) in 0.00 seconds
Thread count was 1 (of 4 available processors)

Solution count 1: 58.0364 

Optimal solution found (tolerance 1.00e-04)
Best objective 5.803638828632e+01, best bound 5.803638828632e+01, gap 0.0000%

Gurobi 8.1.1 (mac64, Python) logging started Fri Oct 30 13:41:03 2020

Academic license - for non-commercial use only
Changed value of parameter TimeLimit to 600.0
   Prev: 1e+100  Min: 0.0  Max: 1e+100  Default: 1e+100
Optimize a model with 202 rows, 203 columns and 404 nonzeros
Variable types: 202 continuous, 1 integer (1 binary)
Coefficient statistics:
  Matrix range     [1e+00, 1e+00]
  Objective range  [2e-01, 2e+00]
  Bounds range     [1e+00, 1e+00]
  RHS range        [1e+00, 1e+00]
Presolve removed 202 rows and 203 columns
Presolve time: 0.00s
Presolve: All rows and columns removed

Explored 0 nodes (0 simplex iterations) in 0.00 seconds
Thread count was 1 (of 4 available processors)

Solution count 1: 58.0364 

Optimal solution found (tolerance 1.00e-04)
Best objective 5.803638828632e+01, best bound 5.803638828632e+01, gap 0.0000%
